cost: 1143.84
Route 1:           0    7   42   38   36   17    1   39   26    0
Route 2:           0   22   29   25   11    0
Route 3:           0   23   12    3   48   49    0
Route 4:           0   24   33   47   37    4    2    0
Route 5:           0   28    9   14   15   27    0
Route 6:           0   35   46   21   18    0
Route 7:           0   41   19   10   40   20    0
Route 8:           0   43   32   16   30   34   44    0
Route 9:           0   45    8   31    6   50   13    5    0
